p cnf 24 47
-1 18 0 
-2 4 -1 19 0 
-2 4 -1 20 0 
-2 4 -1 21 0 
-2 4 -1 22 0 
-2 4 -1 23 0 
-3 -1 22 0 
-3 -1 19 0 
-3 -1 23 0 
-3 -1 21 0 
-3 -1 20 0 
-4 2 -1 19 0 
-4 2 -1 20 0 
-4 2 -1 22 0 
-4 2 -1 23 0 
-4 2 -1 21 0 
-5 21 0 
-6 20 0 
-1 22 0 
-1 19 0 
-1 23 0 
-1 21 0 
-1 20 0 
-7 19 0 
-7 23 0 
-8 13 23 0 
-8 13 22 0 
-8 13 21 0 
-8 13 19 0 
-8 13 20 0 
-1 24 0 
-9 -1 22 0 
-9 -1 21 0 
-9 -1 19 0 
-9 -1 20 0 
-2 4 23 0 
-2 4 19 0 
-2 4 21 0 
-2 4 22 0 
-2 4 20 0 
-10 18 0 
-11 -1 20 0 
-12 -1 22 0 
-13 8 -1 19 0 
-14 -1 23 0 
-15 -1 21 0 
-9 -16 -17 23 0 
